Route #1: 115 114 106 107 108 109 120
Route #2: 81 112 110 111 125 126 124 123 122 121 127 128 129 113 68 69 70 133
Route #3: 61 54 53 102 104 101 97 100 98 99 35 36 37 95 40 3 41 42 43 44 39 38 96 45 94 93 105 56 103 55 57 58
Route #4: 118 19 65 130 119 116 131 117 132 18 17 71
Route #5: 23 22 24 30 31 59 60 47 74 73
Route #6: 72 75 1 62 50 51 52 49 34 48 32 134 76 77 64 63 79 33 80 67 78
Route #7: 91 21 25 26 27 28 90 89 16 13 15 14 88 2 10 4 5 6 7 8 9 11 12 92 29 87 86 84 85 83 20 82 46 66
Cost 1205.9666943010884